100
32
6
29
5
29
22
1
17
9
27
11
10
11
1
8
26
6
21
1
1
5
10
14
13
12
8
11
11
14
29
2
14
29
2
30
5
24
20
22
3
9
29
13
14
25
11
17
1
32
2
28
20
32
17
24
30
6
7
9
17
18
8
28
19
13
17
19
6
17
28
19
1
28
24
19
25
12
12
18
4
22
4
9
26
16
9
9
11
30
17
17
15
25
4
10
7
26
20
12
31
32